\ Model Routes
\ LP format - for model browsing. Use MPS format to capture full model detail.
Maximize
  - 191.7153353028244 R{0,0} + 623.2046552982704 R{0,1}
   + 623.2046552982704 R{0,2} - 249.2301939667805 R{0,3}
   + 234.7650315204939 R{0,4} + 397.2891588355392 R{0,5}
   + 449.0745601781551 R{0,6} + 568.2280287393723 R{0,7}
   + 577.8421868511019 R{0,8} + 368.3846205900942 R{0,9}
   + 354.6487390657325 R{0,10} + 628.3085410177762 R{0,11}
   + 227.0117100192371 R{0,12} + 155.6154981345337 R{0,13}
   + 205.7550488064883 R{0,14} - 256.140831891889 R{1,0}
   - 58.16416216887956 R{1,1} + 669.0062570112706 R{1,2}
   + 696.9619339528325 R{1,3} + 713.8427661458376 R{1,4}
   + 439.288000325269 R{1,5} - 103.5465242599908 R{1,6}
   + 674.7875298953402 R{1,7} + 1198.881248318718 R{2,0}
   + 1198.881248318718 R{2,1} - 278.4443928850388 R{2,2}
   - 59.13410337035452 R{2,3} + 602.7748664658451 R{2,4}
   + 1100.505917706273 R{2,5} + 838.1281267964846 R{2,6}
   + 514.8624679471038 R{2,7} + 335.9778851140871 R{2,8}
   + 524.026065802254 R{2,9} + 294.7292656463104 R{2,10}
   + 1618.715031601016 R{2,11} + 591.0325885092791 R{2,12}
   + 947.5724883564153 R{2,13} + 212.622736428392 R{2,14}
   + 392.225728173772 R{2,15} + 54.61238926148735 R{2,16}
   + 153.8595486765674 R{2,17} - 260.2482995389823 R{3,0}
   + 967.7221973521264 R{3,1} + 1335.663160618656 R{3,2}
   + 1696.665877888776 R{3,3} + 1678.599923801542 R{3,4}
   + 1112.243776507833 R{3,5} + 1247.048312622577 R{3,6}
   + 481.8579014835789 R{3,7} + 1113.414646745748 R{3,8}
   + 1262.498545764874 R{3,9} + 754.2645799419192 R{3,10}
   + 1240.105855390239 R{3,11} + 1387.687319894072 R{3,12}
   + 1011.104055201255 R{3,13} + 660.9007485669011 R{3,14}
   + 842.6989109255439 R{3,15} + 325.2574321112459 R{3,16}
   + 452.1264260092872 R{3,17} + 643.5696944518315 R{3,18}
   + 612.1528234903377 R{3,19} + 1002.944370094871 R{3,20}
   + 1326.700565647534 R{3,21} + 1706.749460584705 R{3,22}
   + 1456.770493940719 R{3,23} - 242.5208875955131 R{4,0}
   + 430.0534748373852 R{4,1} + 950.677574514046 R{4,2}
   + 785.1941472952821 R{4,3} + 801.9962060767624 R{4,4}
   + 604.2767686750271 R{4,5} + 1053.500205650345 R{4,6}
   + 1053.061206005225 R{4,7} + 1178.858921873517 R{4,8}
   + 459.1307926096742 R{4,9} + 1015.769507452202 R{4,10}
   + 2048.543217921567 R{4,11} + 1496.374275989221 R{4,12}
   + 441.4185567641996 R{4,13} + 378.5185752849895 R{4,14}
   + 1444.803206387061 R{4,15} + 965.4240740265832 R{4,16}
   + 648.8464909402697 R{4,17} + 475.4476458870645 R{4,18}
   + 877.8855709136849 R{4,19} + 1327.053635162799 R{4,20}
   - 231.9775664337766 R{5,0} + 40.49903117334031 R{5,1}
   + 364.0546919427258 R{5,2} + 519.8626085870756 R{5,3}
   + 639.1549265257757 R{5,4} + 389.9654503698441 R{5,5}
   + 374.6911233393461 R{5,6} + 543.9171540575371 R{5,7}
   + 167.1065129420408 R{5,8} + 636.2961346619697 R{5,9}
   + 998.2643377033178 R{5,10} + 508.5017739960906 R{5,11}
   + 508.5017739960906 R{5,12} + 215.6988429930367 R{5,13}
   + 470.8493604705743 R{5,14} + 710.4113415517977 R{5,15}
   - 231.1436095783099 R{6,0} + 324.889552843264 R{6,1}
   + 1348.999169502638 R{6,2} + 1914.144530245978 R{6,3}
   + 1563.515471331023 R{6,4} + 1962.645733954319 R{6,5}
   + 576.5252928644755 R{6,6} + 1482.722075635942 R{6,7}
   + 1356.044833981066 R{6,8} + 2140.530071787798 R{6,9}
   + 1878.031084111805 R{6,10} + 1180.603003485205 R{6,11}
   + 553.6284829296752 R{6,12} + 1074.378894002191 R{6,13}
   + 2024.0513263245 R{6,14} + 147.7452664381724 R{6,15}
   + 464.2679254888687 R{6,16} + 1888.244428747277 R{6,17}
   + 671.761865729958 R{6,18} + 2452.039273371872 R{6,19}
   + 1682.717553058092 R{6,20} + 980.2359610610285 R{6,21}
   + 1976.606075849541 R{6,22} + 1445.2245643931 R{6,23}
   + 1240.10811979534 R{6,24} + 620.3732901558037 R{6,25}
   + 1167.932381590841 R{6,26} + 1167.932381590841 R{6,27}
   + 1201.421158211899 R{6,28} + 1167.932381590841 R{6,29}
Subject To
 R00: R{0,0} <= 1
 R01: R{0,1} <= 1
 R02: R{0,2} <= 1
 R03: R{0,3} <= 1
 R04: R{0,4} <= 1
 R05: R{0,5} <= 1
 R06: R{0,6} <= 1
 R07: R{0,7} <= 1
 R08: R{0,8} <= 1
 R09: R{0,9} <= 1
 R010: R{0,10} <= 1
 R011: R{0,11} <= 1
 R012: R{0,12} <= 1
 R013: R{0,13} <= 1
 R014: R{0,14} <= 1
 R015: R{1,0} <= 1
 R016: R{1,1} <= 1
 R017: R{1,2} <= 1
 R018: R{1,3} <= 1
 R019: R{1,4} <= 1
 R020: R{1,5} <= 1
 R021: R{1,6} <= 1
 R022: R{1,7} <= 1
 R023: R{2,0} <= 1
 R024: R{2,1} <= 1
 R025: R{2,2} <= 1
 R026: R{2,3} <= 1
 R027: R{2,4} <= 1
 R028: R{2,5} <= 1
 R029: R{2,6} <= 1
 R030: R{2,7} <= 1
 R031: R{2,8} <= 1
 R032: R{2,9} <= 1
 R033: R{2,10} <= 1
 R034: R{2,11} <= 1
 R035: R{2,12} <= 1
 R036: R{2,13} <= 1
 R037: R{2,14} <= 1
 R038: R{2,15} <= 1
 R039: R{2,16} <= 1
 R040: R{2,17} <= 1
 R041: R{3,0} <= 1
 R042: R{3,1} <= 1
 R043: R{3,2} <= 1
 R044: R{3,3} <= 1
 R045: R{3,4} <= 1
 R046: R{3,5} <= 1
 R047: R{3,6} <= 1
 R048: R{3,7} <= 1
 R049: R{3,8} <= 1
 R050: R{3,9} <= 1
 R051: R{3,10} <= 1
 R052: R{3,11} <= 1
 R053: R{3,12} <= 1
 R054: R{3,13} <= 1
 R055: R{3,14} <= 1
 R056: R{3,15} <= 1
 R057: R{3,16} <= 1
 R058: R{3,17} <= 1
 R059: R{3,18} <= 1
 R060: R{3,19} <= 1
 R061: R{3,20} <= 1
 R062: R{3,21} <= 1
 R063: R{3,22} <= 1
 R064: R{3,23} <= 1
 R065: R{4,0} <= 1
 R066: R{4,1} <= 1
 R067: R{4,2} <= 1
 R068: R{4,3} <= 1
 R069: R{4,4} <= 1
 R070: R{4,5} <= 1
 R071: R{4,6} <= 1
 R072: R{4,7} <= 1
 R073: R{4,8} <= 1
 R074: R{4,9} <= 1
 R075: R{4,10} <= 1
 R076: R{4,11} <= 1
 R077: R{4,12} <= 1
 R078: R{4,13} <= 1
 R079: R{4,14} <= 1
 R080: R{4,15} <= 1
 R081: R{4,16} <= 1
 R082: R{4,17} <= 1
 R083: R{4,18} <= 1
 R084: R{4,19} <= 1
 R085: R{4,20} <= 1
 R086: R{5,0} <= 1
 R087: R{5,1} <= 1
 R088: R{5,2} <= 1
 R089: R{5,3} <= 1
 R090: R{5,4} <= 1
 R091: R{5,5} <= 1
 R092: R{5,6} <= 1
 R093: R{5,7} <= 1
 R094: R{5,8} <= 1
 R095: R{5,9} <= 1
 R096: R{5,10} <= 1
 R097: R{5,11} <= 1
 R098: R{5,12} <= 1
 R099: R{5,13} <= 1
 R0100: R{5,14} <= 1
 R0101: R{5,15} <= 1
 R0102: R{6,0} <= 1
 R0103: R{6,1} <= 1
 R0104: R{6,2} <= 1
 R0105: R{6,3} <= 1
 R0106: R{6,4} <= 1
 R0107: R{6,5} <= 1
 R0108: R{6,6} <= 1
 R0109: R{6,7} <= 1
 R0110: R{6,8} <= 1
 R0111: R{6,9} <= 1
 R0112: R{6,10} <= 1
 R0113: R{6,11} <= 1
 R0114: R{6,12} <= 1
 R0115: R{6,13} <= 1
 R0116: R{6,14} <= 1
 R0117: R{6,15} <= 1
 R0118: R{6,16} <= 1
 R0119: R{6,17} <= 1
 R0120: R{6,18} <= 1
 R0121: R{6,19} <= 1
 R0122: R{6,20} <= 1
 R0123: R{6,21} <= 1
 R0124: R{6,22} <= 1
 R0125: R{6,23} <= 1
 R0126: R{6,24} <= 1
 R0127: R{6,25} <= 1
 R0128: R{6,26} <= 1
 R0129: R{6,27} <= 1
 R0130: R{6,28} <= 1
 R0131: R{6,29} <= 1
 R1_0: R{0,0} + R{0,1} + R{0,2} + R{0,3} + R{0,4} + R{0,5} + R{0,6}
   + R{0,7} + R{0,8} + R{0,9} + R{0,10} + R{0,11} + R{0,12} + R{0,13}
   + R{0,14} <= 1
 R1_1: R{1,0} + R{1,1} + R{1,2} + R{1,3} + R{1,4} + R{1,5} + R{1,6}
   + R{1,7} <= 1
 R1_2: R{2,0} + R{2,1} + R{2,2} + R{2,3} + R{2,4} + R{2,5} + R{2,6}
   + R{2,7} + R{2,8} + R{2,9} + R{2,10} + R{2,11} + R{2,12} + R{2,13}
   + R{2,14} + R{2,15} + R{2,16} + R{2,17} <= 1
 R1_3: R{3,0} + R{3,1} + R{3,2} + R{3,3} + R{3,4} + R{3,5} + R{3,6}
   + R{3,7} + R{3,8} + R{3,9} + R{3,10} + R{3,11} + R{3,12} + R{3,13}
   + R{3,14} + R{3,15} + R{3,16} + R{3,17} + R{3,18} + R{3,19} + R{3,20}
   + R{3,21} + R{3,22} + R{3,23} <= 1
 R1_4: R{4,0} + R{4,1} + R{4,2} + R{4,3} + R{4,4} + R{4,5} + R{4,6}
   + R{4,7} + R{4,8} + R{4,9} + R{4,10} + R{4,11} + R{4,12} + R{4,13}
   + R{4,14} + R{4,15} + R{4,16} + R{4,17} + R{4,18} + R{4,19} + R{4,20}
   <= 1
 R1_5: R{5,0} + R{5,1} + R{5,2} + R{5,3} + R{5,4} + R{5,5} + R{5,6}
   + R{5,7} + R{5,8} + R{5,9} + R{5,10} + R{5,11} + R{5,12} + R{5,13}
   + R{5,14} + R{5,15} <= 1
 R1_6: R{6,0} + R{6,1} + R{6,2} + R{6,3} + R{6,4} + R{6,5} + R{6,6}
   + R{6,7} + R{6,8} + R{6,9} + R{6,10} + R{6,11} + R{6,12} + R{6,13}
   + R{6,14} + R{6,15} + R{6,16} + R{6,17} + R{6,18} + R{6,19} + R{6,20}
   + R{6,21} + R{6,22} + R{6,23} + R{6,24} + R{6,25} + R{6,26} + R{6,27}
   + R{6,28} + R{6,29} <= 1
 R2_0: 7 R{2,10} + 7 R{2,11} + 7 R{4,11} + 7 R{4,12} <= 7
 R2_1: 10 R{2,16} + 10 R{3,1} + 10 R{3,2} + 10 R{3,3} + 10 R{3,4}
   + 10 R{3,6} + 10 R{3,8} + 10 R{3,10} + 10 R{3,12} + 10 R{3,17}
   + 10 R{3,20} + 10 R{3,21} + 10 R{3,23} + 10 R{5,4} + 10 R{5,8}
   + 10 R{6,11} + 10 R{6,18} + 10 R{6,21} + 10 R{6,23} + 10 R{6,24}
   + 10 R{6,26} + 10 R{6,27} + 10 R{6,29} <= 10
 R2_2: <= 0
 R2_3: 4 R{1,4} + 4 R{5,1} + 4 R{5,2} + 4 R{5,5} + 4 R{5,6} + 4 R{5,9}
   + 4 R{5,13} + 4 R{6,18} + 4 R{6,19} + 4 R{6,21} + 4 R{6,26} + 4 R{6,27}
   + 4 R{6,29} <= 4
 R2_4: <= 0
 R2_5: 5 R{5,1} + 5 R{5,2} + 5 R{5,3} + 5 R{5,5} + 5 R{5,7} + 5 R{5,9}
   + 5 R{5,10} + 5 R{5,13} + 5 R{5,14} <= 5
 R2_6: 10 R{3,11} + 10 R{3,15} + 10 R{3,22} + 10 R{4,11} + 10 R{4,15}
   + 10 R{5,5} + 10 R{5,6} + 10 R{5,7} + 10 R{5,11} + 10 R{5,12}
   + 10 R{6,1} + 10 R{6,2} + 10 R{6,3} + 10 R{6,4} + 10 R{6,5} + 10 R{6,6}
   + 10 R{6,7} + 10 R{6,8} + 10 R{6,10} + 10 R{6,14} + 10 R{6,17}
   + 10 R{6,19} + 10 R{6,21} + 10 R{6,22} + 10 R{6,26} + 10 R{6,27}
   + 10 R{6,29} <= 10
 R2_7: <= 0
 R2_8: <= 0
 R2_9: <= 12
 R2_10: <= 8
 R2_11: 15 R{0,9} + 15 R{0,11} + 15 R{0,14} + 15 R{4,7} + 15 R{4,10}
   + 15 R{4,19} + 15 R{4,20} <= 15
 R2_12: <= 0
 R2_13: 8 R{6,19} <= 8
 R2_14: <= 0
 R2_15: 11 R{0,0} + 11 R{0,1} + 11 R{0,2} + 11 R{0,13} + 11 R{4,1}
   + 11 R{4,2} + 11 R{4,3} + 11 R{4,9} <= 11
 R2_16: 5 R{0,11} + 5 R{0,14} + 5 R{6,19} <= 5
 R2_17: 11 R{3,23} + 11 R{4,20} + 11 R{6,28} <= 11
 R2_18: 5 R{4,14} <= 5
 R2_19: <= 11
 R2_20: 13 R{0,5} + 13 R{1,5} + 13 R{2,5} + 13 R{2,7} + 13 R{3,1}
   + 13 R{3,2} + 13 R{3,3} + 13 R{3,4} + 13 R{3,5} + 13 R{3,6} + 13 R{3,9}
   + 13 R{3,11} + 13 R{3,12} + 13 R{3,15} + 13 R{3,18} + 13 R{3,21}
   + 13 R{3,22} + 13 R{3,23} + 13 R{5,2} + 13 R{5,3} + 13 R{5,10}
   + 13 R{6,9} <= 13
 R2_21: <= 0
 R2_22: <= 10
 R2_23: 14 R{0,1} + 14 R{0,2} + 14 R{0,7} + 14 R{0,8} + 14 R{0,12}
   + 14 R{2,0} + 14 R{2,1} + 14 R{2,8} + 14 R{2,9} + 14 R{2,12}
   + 14 R{2,13} + 14 R{2,14} + 14 R{2,17} + 14 R{6,2} + 14 R{6,3}
   + 14 R{6,5} + 14 R{6,9} + 14 R{6,13} + 14 R{6,14} + 14 R{6,17}
   + 14 R{6,19} + 14 R{6,28} <= 14
 R2_24: 10 R{2,7} + 10 R{2,11} + 10 R{3,1} + 10 R{3,2} + 10 R{3,3}
   + 10 R{3,5} + 10 R{3,6} + 10 R{3,7} + 10 R{3,8} + 10 R{3,9} + 10 R{3,10}
   + 10 R{3,11} + 10 R{3,12} + 10 R{3,13} + 10 R{3,14} + 10 R{3,15}
   + 10 R{3,17} + 10 R{3,18} + 10 R{3,19} + 10 R{3,21} + 10 R{3,22}
   + 10 R{5,4} + 10 R{6,11} + 10 R{6,23} <= 10
 R2_25: 13 R{2,11} + 13 R{3,19} + 13 R{3,21} + 13 R{4,1} + 13 R{4,2}
   + 13 R{4,3} + 13 R{4,4} + 13 R{4,8} + 13 R{4,9} + 13 R{4,13}
   + 13 R{4,16} + 13 R{4,17} + 13 R{4,18} + 13 R{6,11} + 13 R{6,23}
   + 13 R{6,24} <= 13
 R2_26: 6 R{1,1} + 6 R{1,2} + 6 R{1,4} + 6 R{1,5} + 6 R{1,6} + 6 R{4,11}
   + 6 R{4,12} + 6 R{4,15} + 6 R{4,20} + 6 R{5,7} + 6 R{5,14} <= 6
 R2_27: 5 R{3,4} + 5 R{3,6} + 5 R{3,9} + 5 R{3,10} + 5 R{3,23} + 5 R{4,7}
   + 5 R{4,10} + 5 R{5,9} + 5 R{5,15} + 5 R{6,4} + 5 R{6,7} + 5 R{6,10}
   + 5 R{6,21} + 5 R{6,22} + 5 R{6,24} + 5 R{6,26} + 5 R{6,27} + 5 R{6,29}
   <= 5
 R2_28: <= 0
 R2_29: <= 0
 R2_30: <= 0
 R2_31: 6 R{6,1} + 6 R{6,2} + 6 R{6,6} + 6 R{6,12} + 6 R{6,13} + 6 R{6,15}
   + 6 R{6,16} + 6 R{6,18} + 6 R{6,19} + 6 R{6,21} + 6 R{6,25} + 6 R{6,26}
   + 6 R{6,27} + 6 R{6,29} <= 6
 R2_32: 7 R{0,4} + 7 R{0,5} + 7 R{0,10} + 7 R{5,3} + 7 R{5,5} + 7 R{5,6}
   + 7 R{5,7} + 7 R{5,9} + 7 R{5,10} + 7 R{5,11} + 7 R{5,12} + 7 R{5,13}
   + 7 R{5,14} + 7 R{5,15} <= 7
 R2_33: 12 R{3,7} + 12 R{3,13} + 12 R{3,16} + 12 R{3,17} + 12 R{3,18}
   + 12 R{6,8} + 12 R{6,16} + 12 R{6,25} + 12 R{6,26} + 12 R{6,27}
   + 12 R{6,29} <= 12
 R2_34: 5 R{3,12} + 5 R{3,21} + 5 R{4,11} + 5 R{6,12} + 5 R{6,13}
   + 5 R{6,14} + 5 R{6,19} + 5 R{6,20} <= 5
 R2_35: 13 R{6,16} <= 13
 R2_36: <= 0
 R2_37: 5 R{0,10} + 5 R{4,11} + 5 R{4,12} + 5 R{4,15} + 5 R{5,1} + 5 R{5,9}
   + 5 R{5,14} + 5 R{5,15} <= 5
 R2_38: <= 0
 R2_39: <= 0
 R2_40: 15 R{2,3} + 15 R{2,4} + 15 R{2,5} + 15 R{4,11} + 15 R{4,12}
   + 15 R{4,15} + 15 R{4,20} + 15 R{5,15} <= 15
 R2_41: 5 R{2,6} + 5 R{3,2} + 5 R{3,3} + 5 R{3,4} + 5 R{3,5} + 5 R{3,9}
   + 5 R{3,11} + 5 R{3,14} + 5 R{3,19} + 5 R{3,20} + 5 R{3,22} + 5 R{3,23}
   + 5 R{4,5} + 5 R{4,6} + 5 R{4,7} + 5 R{4,10} + 5 R{4,19} + 5 R{6,5}
   + 5 R{6,9} + 5 R{6,10} + 5 R{6,11} + 5 R{6,19} + 5 R{6,20} + 5 R{6,22}
   + 5 R{6,23} + 5 R{6,24} <= 5
 R2_42: 4 R{2,3} + 4 R{2,4} + 4 R{2,5} + 4 R{2,7} <= 4
 R2_43: <= 0
 R2_44: <= 0
 R2_45: <= 0
 R2_46: 9 R{0,6} + 9 R{0,8} + 9 R{0,13} + 9 R{4,4} + 9 R{4,8} + 9 R{4,11}
   + 9 R{4,12} + 9 R{4,15} + 9 R{4,16} + 9 R{4,17} <= 9
 R2_47: 7 R{1,1} + 7 R{1,2} + 7 R{1,3} <= 7
 R2_48: 4 R{4,1} + 4 R{4,2} + 4 R{4,3} + 4 R{4,4} + 4 R{4,5} + 4 R{4,6}
   + 4 R{4,7} + 4 R{4,8} + 4 R{4,10} + 4 R{4,16} + 4 R{4,17} + 4 R{4,18}
   + 4 R{4,19} <= 4
 R2_49: <= 0
 R2_50: <= 0
 R2_51: 11 R{4,10} + 11 R{4,19} + 11 R{5,10} + 11 R{5,13} <= 11
 R2_52: 10 R{4,11} + 10 R{4,12} + 10 R{4,14} + 10 R{4,15} + 10 R{4,18}
   + 10 R{4,20} <= 10
 R2_53: 13 R{4,1} + 13 R{4,2} + 13 R{4,4} + 13 R{4,5} + 13 R{4,17}
   + 13 R{4,18} <= 13
 R2_54: 9 R{3,1} + 9 R{3,2} + 9 R{3,3} + 9 R{3,4} + 9 R{3,5} + 9 R{3,6}
   + 9 R{3,7} + 9 R{3,8} + 9 R{3,10} + 9 R{3,11} + 9 R{3,12} + 9 R{3,13}
   + 9 R{3,14} + 9 R{3,15} + 9 R{3,16} + 9 R{3,21} + 9 R{3,22} + 9 R{6,19}
   <= 9
 R2_55: 8 R{4,14} <= 8
 R2_56: 6 R{2,0} + 6 R{2,1} + 6 R{2,6} + 6 R{2,10} + 6 R{2,11} + 6 R{2,13}
   + 6 R{2,15} + 6 R{4,3} + 6 R{4,8} + 6 R{4,11} + 6 R{4,12} + 6 R{4,16}
   + 6 R{6,2} + 6 R{6,3} + 6 R{6,4} + 6 R{6,6} + 6 R{6,8} + 6 R{6,10}
   + 6 R{6,12} + 6 R{6,14} + 6 R{6,16} + 6 R{6,18} + 6 R{6,20} + 6 R{6,23}
   + 6 R{6,28} <= 6
 R2_57: <= 0
 R2_58: 15 R{4,20} <= 15
 R2_59: 10 R{3,16} + 10 R{4,9} + 10 R{4,13} + 10 R{4,14} + 10 R{4,15}
   + 10 R{4,20} + 10 R{6,7} + 10 R{6,13} + 10 R{6,25} <= 10
 R2_60: <= 0
 R2_61: <= 9
 R2_62: <= 0
 R2_63: <= 0
 R2_64: <= 0
 R2_65: 5 R{2,0} + 5 R{2,1} + 5 R{2,8} + 5 R{2,15} + 5 R{6,1} + 5 R{6,2}
   + 5 R{6,3} + 5 R{6,5} + 5 R{6,9} + 5 R{6,11} + 5 R{6,13} + 5 R{6,14}
   + 5 R{6,15} + 5 R{6,17} + 5 R{6,20} + 5 R{6,22} + 5 R{6,23} + 5 R{6,24}
   + 5 R{6,25} + 5 R{6,28} <= 5
 R2_66: 7 R{1,3} + 7 R{2,11} + 7 R{6,19} <= 7
 R2_67: 3 R{0,1} + 3 R{0,2} + 3 R{0,6} + 3 R{0,7} + 3 R{0,9} + 3 R{0,11}
   + 3 R{2,0} + 3 R{2,1} + 3 R{2,6} + 3 R{2,9} + 3 R{2,12} + 3 R{2,13}
   <= 3
 R2_68: 6 R{3,20} + 6 R{4,1} + 6 R{4,3} + 6 R{4,4} + 6 R{4,5} + 6 R{4,8}
   + 6 R{4,9} + 6 R{4,13} + 6 R{5,4} + 6 R{5,8} <= 6
 R2_69: 7 R{4,1} + 7 R{4,2} + 7 R{4,3} + 7 R{4,4} + 7 R{4,5} + 7 R{4,6}
   + 7 R{4,7} + 7 R{4,8} + 7 R{4,9} + 7 R{4,11} + 7 R{4,12} + 7 R{4,13}
   + 7 R{4,15} + 7 R{4,16} + 7 R{4,17} + 7 R{4,18} + 7 R{4,19} + 7 R{4,20}
   + 7 R{5,4} + 7 R{5,14} <= 7
 R2_70: 11 R{6,1} + 11 R{6,2} + 11 R{6,3} + 11 R{6,4} + 11 R{6,6}
   + 11 R{6,15} + 11 R{6,17} + 11 R{6,18} + 11 R{6,19} + 11 R{6,21}
   + 11 R{6,28} <= 11
 R2_71: 7 R{3,1} + 7 R{3,2} + 7 R{3,3} + 7 R{3,5} + 7 R{3,7} + 7 R{3,14}
   + 7 R{3,20} + 7 R{3,22} + 7 R{6,2} + 7 R{6,3} + 7 R{6,5} + 7 R{6,9}
   + 7 R{6,13} + 7 R{6,17} + 7 R{6,19} + 7 R{6,22} + 7 R{6,25} + 7 R{6,28}
   <= 7
 R2_72: <= 0
 R2_73: <= 0
 R2_74: 5 R{5,1} + 5 R{5,2} + 5 R{5,3} + 5 R{5,5} + 5 R{5,6} + 5 R{5,7}
   + 5 R{5,9} + 5 R{5,10} + 5 R{5,13} + 5 R{5,15} <= 5
 R2_75: 8 R{6,1} + 8 R{6,2} + 8 R{6,3} + 8 R{6,4} + 8 R{6,5} + 8 R{6,6}
   + 8 R{6,7} + 8 R{6,8} + 8 R{6,9} + 8 R{6,11} + 8 R{6,12} + 8 R{6,14}
   + 8 R{6,15} + 8 R{6,17} + 8 R{6,18} + 8 R{6,19} + 8 R{6,21} + 8 R{6,22}
   + 8 R{6,28} <= 8
 R2_76: 12 R{0,4} + 12 R{0,10} + 12 R{1,7} + 12 R{3,3} + 12 R{3,4}
   + 12 R{3,12} + 12 R{3,20} + 12 R{3,22} + 12 R{5,10} + 12 R{5,11}
   + 12 R{5,12} + 12 R{6,17} + 12 R{6,19} <= 12
 R2_77: 7 R{1,2} + 7 R{1,3} + 7 R{1,4} + 7 R{1,7} + 7 R{2,4} + 7 R{2,5}
   + 7 R{2,11} + 7 R{3,8} + 7 R{3,13} + 7 R{4,2} + 7 R{4,6} + 7 R{6,3}
   + 7 R{6,4} + 7 R{6,5} + 7 R{6,7} + 7 R{6,8} + 7 R{6,9} + 7 R{6,10}
   + 7 R{6,14} + 7 R{6,17} + 7 R{6,20} + 7 R{6,22} <= 7
Bounds
End
